Gurobi Optimizer version 9.1.2 build v9.1.2rc0 (linux64)
Thread count: 36 physical cores, 72 logical processors, using up to 32 threads
Optimize a model with 12 rows, 57 columns and 590 nonzeros
Model fingerprint: 0xf32eec78
Model has 47 quadratic constraints
Coefficient statistics:
  Matrix range     [2e-05, 3e+00]
  QMatrix range    [1e+00, 1e+00]
  QLMatrix range   [1e+00, 1e+00]
  Objective range  [8e-03, 7e-01]
  Bounds range     [1e+00, 1e+00]
  RHS range        [1e+00, 1e+00]
Presolve removed 9 rows and 0 columns

Continuous model is non-convex -- solving as a MIP.

Presolve removed 9 rows and 0 columns
Presolve time: 0.00s
Presolved: 189 rows, 57 columns, 443 nonzeros
Presolved model has 47 bilinear constraint(s)
Variable types: 57 continuous, 0 integer (0 binary)

Root relaxation: objective -1.743721e+00, 44 iterations, 0.00 seconds

    Nodes    |    Current Node    |     Objective Bounds      |     Work
 Expl Unexpl |  Obj  Depth IntInf | Incumbent    BestBd   Gap | It/Node Time

     0     0   -1.74372    0   38          -   -1.74372      -     -    0s
H    0     0                       0.6147548   -1.74372   384%     -    0s
     0     0   -1.64739    0    1    0.61475   -1.64739   368%     -    0s
H    0     0                      -1.6450460   -1.64739  0.14%     -    0s
     0     0     cutoff    0        -1.64505   -1.64505  0.00%     -    0s

Cutting planes:
  RLT: 25
  BQP: 3

Explored 1 nodes (76 simplex iterations) in 0.01 seconds
Thread count was 32 (of 72 available processors)

Solution count 2: -1.64505 0.614755 
No other solutions better than -1.64505

Optimal solution found (tolerance 1.00e-04)
Best objective -1.645045978473e+00, best bound -1.645045978473e+00, gap 0.0000%

User-callback calls 78, time in user-callback 0.00 sec
Gurobi Optimizer version 9.1.2 build v9.1.2rc0 (linux64)
Thread count: 36 physical cores, 72 logical processors, using up to 32 threads
Optimize a model with 24 rows, 120 columns and 2480 nonzeros
Model fingerprint: 0x3f2b7e54
Model has 100 quadratic constraints
Coefficient statistics:
  Matrix range     [8e-06, 4e+00]
  QMatrix range    [1e+00, 1e+00]
  QLMatrix range   [1e+00, 1e+00]
  Objective range  [6e-03, 1e+00]
  Bounds range     [1e+00, 1e+00]
  RHS range        [1e+00, 1e+00]
Presolve removed 17 rows and 0 columns

Continuous model is non-convex -- solving as a MIP.

Presolve removed 17 rows and 0 columns
Presolve time: 0.00s
Presolved: 407 rows, 120 columns, 1232 nonzeros
Presolved model has 100 bilinear constraint(s)
Variable types: 120 continuous, 0 integer (0 binary)

Root relaxation: objective -9.081323e+00, 135 iterations, 0.00 seconds

    Nodes    |    Current Node    |     Objective Bounds      |     Work
 Expl Unexpl |  Obj  Depth IntInf | Incumbent    BestBd   Gap | It/Node Time

     0     0   -9.08132    0   93          -   -9.08132      -     -    0s
H    0     0                       0.7308847   -9.08132  1343%     -    0s
     0     0   -6.43795    0  100    0.73088   -6.43795   981%     -    0s
H    0     0                       0.1242437   -6.43795  5282%     -    0s
     0     0   -5.72677    0   82    0.12424   -5.72677  4709%     -    0s
H    0     0                      -1.6244943   -5.72677   253%     -    0s
     0     0   -5.68089    0   82   -1.62449   -5.68089   250%     -    0s
     0     0   -5.52498    0  100   -1.62449   -5.52498   240%     -    0s
     0     0   -5.51483    0  100   -1.62449   -5.51483   239%     -    0s
     0     0   -5.44670    0  100   -1.62449   -5.44670   235%     -    0s
H    0     0                      -2.0145981   -5.44670   170%     -    0s
     0     0   -5.44616    0  100   -2.01460   -5.44616   170%     -    0s
     0     0   -5.42142    0  100   -2.01460   -5.42142   169%     -    0s
     0     0   -5.42014    0  100   -2.01460   -5.42014   169%     -    0s
     0     0   -5.41445    0  100   -2.01460   -5.41445   169%     -    0s
     0     0   -5.41431    0  100   -2.01460   -5.41431   169%     -    0s
     0     0   -5.41243    0  100   -2.01460   -5.41243   169%     -    0s
H    0     0                      -3.9153116   -5.41243  38.2%     -    0s
H    0     0                      -4.3027585   -5.41243  25.8%     -    0s
H    0     0                      -4.3276681   -5.41243  25.1%     -    0s
H    0     0                      -4.3568214   -5.41243  24.2%     -    0s
     0     2   -5.41243    0  100   -4.35682   -5.41243  24.2%     -    0s
*  826   384              21      -4.3581968   -4.97304  14.1%  26.1    0s
*  869   534              17      -4.6870083   -4.97304  6.10%  25.3    0s
*  870   534              17      -4.6870188   -4.97304  6.10%  25.3    0s
* 1152   209              14      -4.6870315   -4.83085  3.07%  21.5    0s
* 1306    78              18      -4.6879732   -4.72123  0.71%  19.3    0s
* 1507   120              17      -4.6880528   -4.70117  0.28%  16.9    0s
* 1516   120              18      -4.6880906   -4.70117  0.28%  16.9    0s
* 1519   120              18      -4.6881223   -4.70117  0.28%  16.8    0s
* 1532   120              19      -4.6890053   -4.70117  0.26%  16.7    0s
* 1535   120              21      -4.6890599   -4.70117  0.26%  16.7    0s
* 1545   120              21      -4.6908017   -4.70117  0.22%  16.6    0s
* 1726    36              22      -4.6909947   -4.69158  0.01%  15.5    0s
* 1732    36              23      -4.6910647   -4.69156  0.01%  15.5    0s
* 1791    36              23      -4.6910721   -4.69128  0.00%  15.1    0s

Cutting planes:
  RLT: 62
  BQP: 14
  PSD: 8

Explored 1892 nodes (27806 simplex iterations) in 0.58 seconds
Thread count was 32 (of 72 available processors)

Solution count 10: -4.69107 -4.69106 -4.69099 ... -4.68797

Optimal solution found (tolerance 1.00e-04)
Best objective -4.691072085435e+00, best bound -4.691278927614e+00, gap 0.0044%

User-callback calls 4073, time in user-callback 0.00 sec



objective value: -4.691072085434934
objective bound: -4.691278927613712
x_opt: [0.0, 1.0, 1.0, 4.053896270158058e-5, 1.0, 0.26999201170254433, 0.08799749557457387, 0.0, 1.0, 0.2662709397234438, 0.0, 0.0, 0.0, 1.0, 0.0, 0.8808617097269287, 1.0, 0.9882522212166609, 0.0, 1.0]
GUROBI solution time: 0.5833549499511719




